
******************************************************************************
This program contains Ipopt, a library for large-scale nonlinear optimization.
 Ipopt is released as open source code under the Eclipse Public License (EPL).
         For more information visit http://projects.coin-or.org/Ipopt
******************************************************************************

NOTE: You are using Ipopt by default with the MUMPS linear solver.
      Other linear solvers might be more efficient (see Ipopt documentation).


This is Ipopt version 3.11.2, running with linear solver mumps.

Number of nonzeros in equality constraint Jacobian...:    12836
Number of nonzeros in inequality constraint Jacobian.:        0
Number of nonzeros in Lagrangian Hessian.............:        0

Total number of variables............................:     1600
                     variables with only lower bounds:        0
                variables with lower and upper bounds:     1600
                     variables with only upper bounds:        0
Total number of equality constraints.................:     1550
Total number of inequality constraints...............:        0
        inequality constraints with only lower bounds:        0
   inequality constraints with lower and upper bounds:        0
        inequality constraints with only upper bounds:        0

iter    objective    inf_pr   inf_du lg(mu)  ||d||  lg(rg) alpha_du alpha_pr  ls
   0 -1.8100000e+001 1.74e+006 2.00e-002   0.0 0.00e+000    -  0.00e+000 0.00e+000   0
   1 -2.0966399e+001 1.74e+006 4.04e+002   8.8 4.52e+009    -  4.61e-009 2.22e-009f  1
   2 -2.4461414e+001 1.74e+006 5.10e+004   5.8 1.48e+005    -  1.55e-004 3.04e-005f  2
   3 -2.9003773e+001 1.74e+006 8.75e+007   5.8 5.70e+004    -  9.90e-001 3.80e-004f  1
   4 -2.7122538e+001 1.71e+006 8.24e+009   7.7 1.08e+003    -  9.91e-001 1.64e-002f  1
   5 -2.2917879e+001 1.33e+006 1.32e+010   8.6 7.91e+001    -  4.76e-001 2.23e-001f  1
   6 -1.5307330e+001 6.98e+005 3.91e+010   8.2 4.77e+001    -  2.00e-001 4.75e-001h  1
   7 -1.5460708e+001 4.83e+005 8.10e+010   8.9 7.12e+001    -  4.29e-001 3.08e-001F  1
   8 -1.1911486e+001 5.75e+003 6.16e+010   8.7 2.08e+001    -  9.95e-001 1.00e+000f  1
   9 -1.3835324e+001 2.32e+002 1.43e+011   8.6 3.68e+000    -  7.77e-001 1.00e+000f  1
iter    objective    inf_pr   inf_du lg(mu)  ||d||  lg(rg) alpha_du alpha_pr  ls
  10 -1.4880544e+001 3.71e+001 2.28e+010   8.0 1.87e+000    -  1.00e+000 1.00e+000f  1
  11 -1.6071665e+001 1.92e+000 4.13e+009   7.7 2.18e+000    -  9.99e-001 1.00e+000f  1
  12 -1.7302157e+001 6.83e-001 1.29e+009   7.3 2.41e+000    -  9.97e-001 1.00e+000f  1
  13 -1.8624781e+001 5.26e-001 6.97e+008   6.6 3.10e+000    -  9.96e-001 1.00e+000f  1
  14 -2.0130359e+001 9.83e-001 4.58e+008   6.2 4.29e+000    -  1.00e+000 1.00e+000f  1
  15 -2.3668770e+001 1.13e+002 1.39e+008   5.6 5.85e+000    -  9.30e-001 1.00e+000H  1
  16 -2.6070500e+001 1.86e+002 2.92e+007   4.9 4.31e+000    -  9.55e-001 8.07e-001H  1
  17 -2.6717642e+001 3.21e-001 2.42e+007   3.5 3.34e+000    -  9.56e-001 1.00e+000h  1
  18 -2.6741184e+001 7.01e-002 1.39e+005   1.8 4.31e-001    -  9.54e-001 1.00e+000f  1
  19 -2.6667430e+001 1.00e+001 1.26e+003   1.7 1.31e+000    -  9.92e-001 1.00e+000f  1
iter    objective    inf_pr   inf_du lg(mu)  ||d||  lg(rg) alpha_du alpha_pr  ls
  20 -2.4293090e+001 1.64e+001 6.75e+002   1.7 1.28e+001    -  1.00e+000 1.00e+000f  1
  21 -2.3958880e+001 2.20e-001 4.19e+002   1.0 3.06e+000    -  1.00e+000 1.00e+000f  1
  22 -2.3596314e+001 1.37e-001 2.01e+001   0.3 1.56e+000    -  1.00e+000 1.00e+000f  1
  23 -2.3507917e+001 1.16e-002 1.85e-001  -0.4 4.21e-001    -  1.00e+000 1.00e+000h  1
  24 -2.4509899e+001 1.20e+000 9.73e+000  -1.1 4.01e+000    -  9.92e-001 1.00e+000f  1
  25 -2.8444656e+001 3.85e+000 5.33e+000  -1.8 2.09e+001    -  6.77e-001 4.94e-001f  1
  26 -2.9020039e+001 3.13e+000 4.05e+000  -1.9 2.23e+001    -  1.00e+000 4.76e-001f  1
  27 -2.9669781e+001 3.00e+000 1.62e+000  -2.0 1.73e+001    -  9.77e-001 7.52e-001f  1
  28 -2.9942770e+001 1.65e+000 1.36e-001  -2.0 1.57e+001    -  8.84e-001 8.58e-001f  1
  29 -3.0160536e+001 1.41e+000 7.66e-002  -2.1 1.47e+001    -  8.49e-001 1.00e+000f  1
iter    objective    inf_pr   inf_du lg(mu)  ||d||  lg(rg) alpha_du alpha_pr  ls
  30 -3.0304810e+001 1.18e+000 5.08e-002  -2.3 1.29e+001    -  9.16e-001 1.00e+000h  1
  31 -3.0435733e+001 1.16e+000 3.31e-002  -2.5 1.18e+001    -  9.05e-001 1.00e+000h  1
  32 -3.0549093e+001 1.27e+000 2.38e-001  -2.7 1.33e+001    -  8.88e-001 1.00e+000h  1
  33 -3.0594620e+001 5.63e-001 8.14e-002  -3.1 5.70e+000  -4.0 1.00e+000 6.61e-001h  1
  34 -3.0633470e+001 1.06e+000 1.48e-001  -2.9 1.21e+001    -  1.00e+000 1.00e+000f  1
  35 -3.0644752e+001 6.78e-001 1.57e-001  -3.0 7.45e+000    -  1.00e+000 1.00e+000h  1
  36 -3.0656158e+001 2.00e+000 1.33e-001  -3.0 2.19e+001    -  8.28e-001 1.00e+000h  1
  37 -3.0674327e+001 3.89e-001 2.18e-002  -3.2 3.68e+000    -  1.00e+000 1.00e+000h  1
  38 -3.0687256e+001 4.37e-001 4.14e-001  -3.6 8.76e+000    -  9.73e-001 5.16e-001h  1
  39 -3.0697914e+001 6.41e-001 3.12e-001  -3.8 1.29e+001    -  1.00e+000 5.08e-001h  1
iter    objective    inf_pr   inf_du lg(mu)  ||d||  lg(rg) alpha_du alpha_pr  ls
  40 -3.0694480e+001 7.71e-003 8.49e-003  -3.5 1.04e+000    -  1.00e+000 1.00e+000h  1
  41 -3.0699324e+001 8.77e-002 1.80e-002  -3.6 2.56e+000    -  9.53e-001 1.00e+000h  1
  42 -3.0705212e+001 2.51e-001 1.27e-001  -3.9 6.57e+000    -  1.00e+000 6.39e-001h  1
  43 -3.0709600e+001 2.13e-003 8.92e-002  -4.3 4.70e-001  -3.6 9.99e-001 1.00e+000h  1
  44 -3.0706306e+001 7.58e-003 1.21e-002  -3.8 1.59e+000    -  1.00e+000 1.00e+000f  1
  45 -3.0709365e+001 1.83e-001 1.52e-002  -3.9 4.24e+000    -  1.00e+000 1.00e+000h  1
  46 -3.0709380e+001 8.75e-003 7.32e-003  -3.9 2.03e+000    -  1.00e+000 1.00e+000h  1
  47 -3.0712415e+001 1.93e-001 2.91e-002  -4.1 3.77e+000    -  9.88e-001 1.00e+000h  1
  48 -3.0713241e+001 4.87e-002 9.30e-003  -4.2 2.49e+000    -  1.00e+000 1.00e+000h  1
  49 -3.0715561e+001 3.01e-001 1.49e-002  -4.4 6.45e+000    -  9.91e-001 7.44e-001h  1
iter    objective    inf_pr   inf_du lg(mu)  ||d||  lg(rg) alpha_du alpha_pr  ls
  50 -3.0715593e+001 7.68e-002 1.53e-002  -4.4 3.00e+000    -  8.83e-001 1.00e+000h  1
  51 -3.0717150e+001 2.17e-001 2.64e-002  -4.7 5.38e+000    -  1.00e+000 7.58e-001h  1
  52 -3.0717236e+001 2.19e-001 2.98e-002  -4.7 1.18e+001    -  4.89e-001 2.37e-001h  1
  53 -3.0718332e+001 2.00e-001 4.23e-002  -4.9 5.90e+000    -  8.76e-001 9.07e-001h  1
  54 -3.0718129e+001 6.64e-003 1.15e-002  -4.9 9.49e-001    -  1.00e+000 1.00e+000h  1
  55 -3.0718587e+001 7.30e-002 1.21e-002  -5.2 3.59e+000    -  1.00e+000 7.14e-001h  1
  56 -3.0718830e+001 2.51e-002 9.96e-003  -5.3 2.31e+000    -  1.00e+000 1.00e+000h  1
  57 -3.0719112e+001 3.46e-002 8.45e-003  -5.9 1.67e+000    -  9.70e-001 1.00e+000h  1
  58 -3.0719174e+001 9.21e-004 1.66e-003  -6.9 2.60e-001    -  1.00e+000 1.00e+000h  1
  59 -3.0719177e+001 1.45e-004 5.12e-002  -9.0 1.84e-004    -  1.00e+000 8.67e-001h  1
iter    objective    inf_pr   inf_du lg(mu)  ||d||  lg(rg) alpha_du alpha_pr  ls
  60 -3.0719179e+001 1.76e-004 2.10e+000  -8.6 7.94e-001    -  1.00e+000 3.28e-002h  1
  61 -3.0719180e+001 1.67e-004 3.34e-006  -9.4 1.76e-003    -  1.00e+000 7.22e-001h  1
  62 -3.0719180e+001 1.85e-004 4.22e-006 -10.6 1.10e-003    -  1.00e+000 8.92e-001h  1
  63 -3.0719180e+001 2.00e-004 1.11e-007 -11.0 1.13e-004    -  1.00e+000 1.00e+000h  1
  64 -3.0719180e+001 1.49e-004 4.46e-006 -11.0 9.52e-009    -  1.00e+000 1.00e+000h  1
  65 -3.0719180e+001 1.29e-004 6.58e-006 -11.0 6.52e-009    -  1.00e+000 1.00e+000h  1
  66 -3.0719180e+001 1.38e-004 3.12e-006 -11.0 4.44e-009    -  1.00e+000 2.50e-001h  3
  67 -3.0719180e+001 1.40e-004 5.49e-006 -11.0 2.54e-009    -  1.00e+000 1.00e+000h  1
  68 -3.0719180e+001 1.76e-004 1.13e-007 -11.0 2.61e-009    -  1.00e+000 1.00e+000h  1
  69 -3.0719180e+001 1.57e-004 6.53e-006 -11.0 2.62e-009    -  1.00e+000 3.13e-002h  6
iter    objective    inf_pr   inf_du lg(mu)  ||d||  lg(rg) alpha_du alpha_pr  ls
  70 -3.0719180e+001 2.40e-004 7.47e-006 -11.0 2.64e-009    -  1.00e+000 1.00e+000H  1
  71 -3.0719180e+001 1.36e-004 2.12e-006 -11.0 2.50e-009    -  1.00e+000 5.00e-001h  2
  72 -3.0719180e+001 1.39e-004 6.35e-006 -11.0 2.16e-009    -  1.00e+000 1.00e+000h  1
  73 -3.0719180e+001 1.44e-004 1.12e-007 -11.0 2.64e-009    -  1.00e+000 7.81e-003h  8
  74 -3.0719180e+001 1.39e-004 1.01e-007 -11.0 2.62e-009    -  1.00e+000 2.44e-004h 13
  75 -3.0719180e+001 1.37e-004 2.30e-006 -11.0 2.67e-009    -  1.00e+000 3.13e-002h  6
  76 -3.0719180e+001 1.37e-004 5.27e-006 -11.0 2.71e-009    -  1.00e+000 1.22e-004h 14
  77 -3.0719180e+001 1.62e-004 3.16e-006 -11.0 2.60e-009    -  1.00e+000 1.00e+000s 22
  78 -3.0719180e+001 1.52e-004 8.48e-006 -11.0 4.43e-009    -  1.00e+000 1.00e+000s 22
  79 -3.0719180e+001 1.48e-004 1.28e-005 -11.0 4.84e-009    -  1.00e+000 1.00e+000s 22
iter    objective    inf_pr   inf_du lg(mu)  ||d||  lg(rg) alpha_du alpha_pr  ls
  80 -3.0719180e+001 1.68e-004 5.30e-006 -11.0 4.88e-009    -  1.00e+000 1.00e+000s 22
  81 -3.0719180e+001 1.28e-004 2.07e-006 -11.0 4.81e-009    -  1.00e+000 1.00e+000s 22
  82 -3.0719180e+001 1.41e-004 1.20e-006 -11.0 4.44e-009    -  1.00e+000 1.00e+000s 22
  83 -3.0719180e+001 1.69e-004 3.15e-006 -11.0 4.91e-009    -  1.00e+000 1.00e+000s 22
  84 -3.0719180e+001 1.71e-004 1.10e-007 -11.0 5.04e-009    -  1.00e+000 1.00e+000s 22
  85 -3.0719180e+001 1.58e-004 3.33e-006 -11.0 4.93e-009    -  1.00e+000 1.00e+000s 22
  86 -3.0719180e+001 1.25e-004 4.41e-006 -11.0 4.48e-009    -  1.00e+000 1.00e+000s 22
  87 -3.0719180e+001 1.12e-004 7.44e-006 -11.0 2.61e-009    -  1.00e+000 1.00e+000s 22
Restoration phase is called at almost feasible point,
  but acceptable point from iteration 84 could be restored.

Number of Iterations....: 87

                                   (scaled)                 (unscaled)
Objective...............: -3.0719179915795923e+001  -3.0719179915795923e+001
Dual infeasibility......:  1.1028220911815915e-007   1.1028220911815915e-007
Constraint violation....:  1.7055597709259020e-012   1.7055597709259018e-004
Complementarity.........:  1.0001085223172969e-011   1.0001085223172969e-011
Overall NLP error.......:  1.1028220911815915e-007   1.7055597709259018e-004


Number of objective function evaluations             = 167
Number of objective gradient evaluations             = 89
Number of equality constraint evaluations            = 167
Number of inequality constraint evaluations          = 0
Number of equality constraint Jacobian evaluations   = 88
Number of inequality constraint Jacobian evaluations = 0
Number of Lagrangian Hessian evaluations             = 0
Total CPU secs in IPOPT (w/o function evaluations)   =      2.999
Total CPU secs in NLP function evaluations           =      0.717

EXIT: Solved To Acceptable Level.
